# amount of vehicles
param nv := 3 ;

# amount of orders = orders + amount of vehicles
param nn := 7 ;

# amount of factories
param nf := 3 ;

# amount of unique stop positions
param ns := 6 ;

# amount of distance instervals in cost structure
param na := 2 ;

# amount of weight intervals in cost structure
param nb := 2 ;

# Factory sets
set N_f[1] := 8 ;
set N_f[2] := 9 ;
set N_f[3] := 10 11 ;

# factory stops capacities
param H := 
1 1 
2 1 
3 2
;

# Location sets
set L[1] := 1;
set L[2] := 2;
set L[3] := 3 4;
set L[4] := 8;
set L[5] := 9;
set L[6] := 10 11;

# Vehicle node sets
set N_v[1] := 1 2 3 4 5 8 9 10 11 12;
set N_v[2] := 1 3 4 6 8 10 11 13;
set N_v[3] := 1 2 3 4 7 8 9 10 11 14;

# pickup nodes
set N_vp[1] := 1 2 3 4;
set N_vp[2] := 1 3 4; 
set N_vp[3] := 1 2 3 4;

# Origin and destination of vehicles all 
param o_v := 1 5 2 6 3 7;
param d_v := 1 12 2 13 3 14;

# Capacity of each vehicle
param K := 1 25 2 15 3 15;


# Weight of each Order
param Q := 1 9 2 9 3 7 4 7 5 0;

# No pickup penalty cost
param C := 1 2000 2 2000 3 2000 4 2000 5 0	6 0 7 0;

# Distance interval for cost matrix
param B:= 0 0 1 15 2 200;

# Weight interval for cost matrix
param Z:= 0 0 1 10 2 25;

# Costs per km
param C_km := 
	1 1 1 0
	1 1 2 8	
	1 2 1 0
	1 2 2 10
	2 1 1 0
	2 1 2 25
	2 2 1 0
	2 2 2 30
	3 1 1 0
	3 1 2 25
	3 2 1 0
	3 2 2 30 ;
			
# Costs per kg
param C_kg :=
	1 1 1 35
	1 1 2 0	
	1 2 1 55
	1 2 2 0
	2 1 1 30
	2 1 2 0
	2 2 1 50
	2 2 2 0
	3 1 1 30
	3 1 2 0
	3 2 1 50
	3 2 2 0 ;
			
# Costs fixed
param C_fix := 
	1 1 1 150
	1 1 2 100	
	1 2 1 200
	1 2 2 100
	2 1 1 0
	2 1 2 200
	2 2 1 200
	2 2 2 200
	3 1 1 0
	3 1 2 200
	3 2 1 200
	3 2 2 200 ;
			
# Costs to make a stop
param C_stop:=
1 1 10
1 2 10
1 3 10
1 4 10
1 5 0
1 6 0
1 7 0
1 8 10
1 9 10
1 10 10
1 11 10
1 12 0
1 13 0
1 14 0
2 1 40
2 2 40
2 3 40
2 4 40
2 5 0
2 6 0
2 7 0
2 8 40
2 9 40
2 10 40
2 11 40
2 12 0
2 13 0
2 14 0
3 1 40
3 2 40
3 3 40
3 4 40
3 5 0
3 6 0
3 7 0
3 8 40
3 9 40
3 10 40
3 11 40
3 12 0
3 13 0
3 14 0 ;
	
			
# Time window sets
param pi := 
1 1	 
2 2  
3 2  
4 2 	
5 1  
6 1  
7 1  
8 2  
9 2  
10 2  
11 2  
12 1  
13 1  
14 1 ;	

# Time window lower bounds
param T_l:=	
	1 1 0
	2 1 0
	3 1 0
	4 1 0
	5 1 0
	6 1 0
	7 1 0
	8 1 48
	9 1 10
	10 1 10
	11 1 10
	12 1 0
	13 1 0
	14 1 0
	1 2 .
	2 2 20
	3 2 12
	4 2 12
	5 2 .
	6 2 .
	7 2 .
	8 2 52
	9 2 25
	10 2 20
	11 2 20
	12 2 .
	13 2 .
	14 2 . ;
	

# Time window upper bounds
param T_u:= 	
	1 1 10
	2 1 10
	3 1 10
	4 1 10
	5 1 100
	6 1 100
	7 1 100
	8 1 50
	9 1 15
	10 1 18
	11 1 18
	12 1 100
	13 1 100
	14 1 100
	1 2 .
	2 2 30
	3 2 20
	4 2 20
	5 2 .
	6 2 .
	7 2 .
	8 2 70
	9 2 35
	10 2 30
	11 2 30
	12 2 .
	13 2 .
	14 2 . ;
		
# Travel time
param T:= 	
	1 1 1 .
	1 1 2 19
	1 1 3 40
	1 1 4 40
	1 1 5 100
	1 1 6 .
	1 1 7 .
	1 1 8 48
	1 1 9 28
	1 1 10 47
	1 1 11 47
	1 1 12 0
	1 1 13 .
	1 1 14 .
	1 2 1 19
	1 2 2 .
	1 2 3 50
	1 2 4 50
	1 2 5 100
	1 2 6 .
	1 2 7 .
	1 2 8 29
	1 2 9 11
	1 2 10 52
	1 2 11 52
	1 2 12 0
	1 2 13 .
	1 2 14 .
	1 3 1 40
	1 3 2 50
	1 3 3 .
	1 3 4 0
	1 3 5 100
	1 3 6 .
	1 3 7 .
	1 3 8 47
	1 3 9 52
	1 3 10 14
	1 3 11 14
	1 3 12 0
	1 3 13 .
	1 3 14 .
	1 4 1 40
	1 4 2 50
	1 4 3 0
	1 4 4 .
	1 4 5 100
	1 4 6 .
	1 4 7 .
	1 4 8 47
	1 4 9 52
	1 4 10 14
	1 4 11 14
	1 4 12 0
	1 4 13 .
	1 4 14 .
	1 5 1 0
	1 5 2 0
	1 5 3 0
	1 5 4 0
	1 5 5 .
	1 5 6 .
	1 5 7 .
	1 5 8 0
	1 5 9 0
	1 5 10 0
	1 5 11 0
	1 5 12 0
	1 5 13 .
	1 5 14 .
	1 6 1 .
	1 6 2 .
	1 6 3 .
	1 6 4 .
	1 6 5 .
	1 6 6 .
	1 6 7 .
	1 6 8 .
	1 6 9 .
	1 6 10 .
	1 6 11 .
	1 6 12 .
	1 6 13 .
	1 6 14 .
	1 7 1 .
	1 7 2 .
	1 7 3 .
	1 7 4 .
	1 7 5 .
	1 7 6 .
	1 7 7 .
	1 7 8 .
	1 7 9 .
	1 7 10 .
	1 7 11 .
	1 7 12 .
	1 7 13 .
	1 7 14 .
	1 8 1 48
	1 8 2 29
	1 8 3 47
	1 8 4 47
	1 8 5 100
	1 8 6 .
	1 8 7 .
	1 8 8 .
	1 8 9 21
	1 8 10 38
	1 8 11 38
	1 8 12 0
	1 8 13 . 
	1 8 14 .
	1 9 1 28
	1 9 2 11
	1 9 3 52
	1 9 4 52
	1 9 5 100
	1 9 6 .
	1 9 7 .
	1 9 8 21
	1 9 9 .
	1 9 10 50
	1 9 11 50
	1 9 12 0
	1 9 13 .
	1 9 14 .
	1 10 1 47
	1 10 2 52
	1 10 3 14
	1 10 4 14
	1 10 5 100
	1 10 6 .
	1 10 7 .
	1 10 8 38
	1 10 9 50
	1 10 10 .
	1 10 11 0
	1 10 12 0
	1 10 13 .
	1 10 14 .
	1 11 1 47
	1 11 2 52
	1 11 3 14
	1 11 4 14
	1 11 5 100
	1 11 6 .
	1 11 7 .
	1 11 8 38
	1 11 9 50
	1 11 10 0
	1 11 11 .
	1 11 12 0
	1 11 13 .
	1 11 14 .
	1 12 1 100
	1 12 2 100
	1 12 3 100
	1 12 4 100
	1 12 5 100
	1 12 6 .
	1 12 7 .
	1 12 8 100
	1 12 9 100
	1 12 10 100
	1 12 11 100
	1 12 12 .
	1 12 13 .
	1 12 14 .
	1 13 1 .
	1 13 2 .
	1 13 3 .
	1 13 4 .
	1 13 5 .
	1 13 6 .
	1 13 7 .
	1 13 8 .
	1 13 9 .
	1 13 10 .
	1 13 11 .
	1 13 12 .
	1 13 13 .
	1 13 14 .
	1 14 1 .
	1 14 2 .
	1 14 3 .
	1 14 4 .
	1 14 5 .
	1 14 6 .
	1 14 7 .
	1 14 8 .
	1 14 9 .
	1 14 10 .
	1 14 11 .
	1 14 12 .
	1 14 13 .
	1 14 14 .	
	2 1 1 .
	2 1 2 .
	2 1 3 40
	2 1 4 40
	2 1 5 .
	2 1 6 100
	2 1 7 .
	2 1 8 48
	2 1 9 .
	2 1 10 47
	2 1 11 47
	2 1 12 .
	2 1 13 0
	2 1 14 .
	2 2 1 .
	2 2 2 .
	2 2 3 .
	2 2 4 .
	2 2 5 .
	2 2 6 .
	2 2 7 .
	2 2 8 .
	2 2 9 .
	2 2 10 .
	2 2 11 .
	2 2 12 .
	2 2 13 .
	2 2 14 .
	2 3 1 40
	2 3 2 . 
	2 3 3 .
	2 3 4 0
	2 3 5 .
	2 3 6 100
	2 3 7 .
	2 3 8 47
	2 3 9 .
	2 3 10 14
	2 3 11 14
	2 3 12 .
	2 3 13 0
	2 3 14 .
	2 4 1 40
	2 4 2 .
	2 4 3 0
	2 4 4 .
	2 4 5 .
	2 4 6 100
	2 4 7 .
	2 4 8 47
	2 4 9 .
	2 4 10 14
	2 4 11 14
	2 4 12 .
	2 4 13 0
	2 4 14 .
	2 5 1 .
	2 5 2 .
	2 5 3 .
	2 5 4 .
	2 5 5 .
	2 5 6 .
	2 5 7 .
	2 5 8 .
	2 5 9 .
	2 5 10 .
	2 5 11 .
	2 5 12 .
	2 5 13 .
	2 5 14 .
	2 6 1 0
	2 6 2 .
	2 6 3 0
	2 6 4 0
	2 6 5 .
	2 6 6 .
	2 6 7 .
	2 6 8 0
	2 6 9 .
	2 6 10 0
	2 6 11 0
	2 6 12 .
	2 6 13 0
	2 6 14 .
	2 7 1 .
	2 7 2 .
	2 7 3 .
	2 7 4 .
	2 7 5 .
	2 7 6 .
	2 7 7 .
	2 7 8 .
	2 7 9 .
	2 7 10 .
	2 7 11 .
	2 7 12 .
	2 7 13 .
	2 7 14 .
	2 8 1 48
	2 8 2 .
	2 8 3 47
	2 8 4 47
	2 8 5 .
	2 8 6 100
	2 8 7 .
	2 8 8 .
	2 8 9 .
	2 8 10 38
	2 8 11 38
	2 8 12 .
	2 8 13 0
	2 8 14 .
	2 9 1 .
	2 9 2 .
	2 9 3 .
	2 9 4 .
	2 9 5 .
	2 9 6 .
	2 9 7 .
	2 9 8 .
	2 9 9 .
	2 9 10 .
	2 9 11 .
	2 9 12 .
	2 9 13 .
	2 9 14 .
	2 10 1 47
	2 10 2 .
	2 10 3 14
	2 10 4 14
	2 10 5 .
	2 10 6 100
	2 10 7 .
	2 10 8 38
	2 10 9 .
	2 10 10 .
	2 10 11 0
	2 10 12 .
	2 10 13 0
	2 10 14 .
	2 11 1 47
	2 11 2 . 
	2 11 3 14
	2 11 4 14
	2 11 5 .
	2 11 6 100
	2 11 7 .
	2 11 8 38
	2 11 9 .
	2 11 10 0
	2 11 11 .
	2 11 12 .
	2 11 13 0
	2 11 14 .
	2 12 1 . 
	2 12 2 . 
	2 12 3 . 
	2 12 4 . 
	2 12 5 . 
	2 12 6 . 
	2 12 7 . 
	2 12 8 . 
	2 12 9 . 
	2 12 10 .
	2 12 11 .
	2 12 12 .
	2 12 13 .
	2 12 14 .
	2 13 1 100
	2 13 2 .
	2 13 3 100
	2 13 4 100
	2 13 5 .
	2 13 6 100
	2 13 7 .
	2 13 8 100
	2 13 9 .
	2 13 10 100
	2 13 11 100
	2 13 12 .
	2 13 13 .
	2 13 14 .
	2 14 1 .
	2 14 2 .
	2 14 3 .
	2 14 4 .
	2 14 5 .
	2 14 6 .
	2 14 7 .
	2 14 8 .
	2 14 9 .
	2 14 10 .
	2 14 11 .
	2 14 12 .
	2 14 13 .
	2 14 14 .	
	3 1 1 .
	3 1 2 19
	3 1 3 40
	3 1 4 40
	3 1 5 .
	3 1 6 .
	3 1 7 100
	3 1 8 48
	3 1 9 28
	3 1 10 47
	3 1 11 47
	3 1 12 .
	3 1 13 .
	3 1 14 0
	3 2 1 19
	3 2 2 .
	3 2 3 50
	3 2 4 50
	3 2 5 .
	3 2 6 .
	3 2 7 100
	3 2 8 29
	3 2 9 10
	3 2 10 52
	3 2 11 52
	3 2 12 .
	3 2 13 .
	3 2 14 0
	3 3 1 40
	3 3 2 50
	3 3 3 .
	3 3 4 0
	3 3 5 .
	3 3 6 .
	3 3 7 100
	3 3 8 47
	3 3 9 52
	3 3 10 14
	3 3 11 14
	3 3 12 .
	3 3 13 .
	3 3 14 0
	3 4 1 40
	3 4 2 50
	3 4 3 0
	3 4 4 .
	3 4 5 .
	3 4 6 .
	3 4 7 100
	3 4 8 47
	3 4 9 52
	3 4 10 14
	3 4 11 14
	3 4 12 .
	3 4 13 .
	3 4 14 0
	3 5 1 .
	3 5 2 .
	3 5 3 .
	3 5 4 .
	3 5 5 .
	3 5 6 .
	3 5 7 .
	3 5 8 .
	3 5 9 .
	3 5 10 .
	3 5 11 .
	3 5 12 .
	3 5 13 .
	3 5 14 .
	3 6 1 .
	3 6 2 .
	3 6 3 .
	3 6 4 .
	3 6 5 .
	3 6 6 .
	3 6 7 .
	3 6 8 .
	3 6 9 .
	3 6 10 .
	3 6 11 .
	3 6 12 .
	3 6 13 .
	3 6 14 .
	3 7 1 0
	3 7 2 0
	3 7 3 0
	3 7 4 0
	3 7 5 .
	3 7 6 .
	3 7 7 .
	3 7 8 0
	3 7 9 0
	3 7 10 0
	3 7 11 0
	3 7 12 .
	3 7 13 .
	3 7 14 0
	3 8 1 48
	3 8 2 29
	3 8 3 47
	3 8 4 47
	3 8 5 .
	3 8 6 .
	3 8 7 100
	3 8 8 .
	3 8 9 21
	3 8 10 38
	3 8 11 38
	3 8 12 .
	3 8 13 .
	3 8 14 0
	3 9 1 28
	3 9 2 11
	3 9 3 52
	3 9 4 52
	3 9 5 .
	3 9 6 .
	3 9 7 100
	3 9 8 21
	3 9 9 .
	3 9 10 50
	3 9 11 50
	3 9 12 .
	3 9 13 .
	3 9 14 0
	3 10 1 47
	3 10 2 52
	3 10 3 14
	3 10 4 14
	3 10 5 .
	3 10 6 .
	3 10 7 100
	3 10 8 38
	3 10 9 50
	3 10 10 .
	3 10 11 0
	3 10 12 .
	3 10 13 .
	3 10 14 0
	3 11 1 47
	3 11 2 52
	3 11 3 14
	3 11 4 14
	3 11 5 .
	3 11 6 .
	3 11 7 100
	3 11 8 38
	3 11 9 50
	3 11 10 0
	3 11 11 .
	3 11 12 .
	3 11 13 .
	3 11 14 0
	3 12 1 . 
	3 12 2 . 
	3 12 3 . 
	3 12 4 . 
	3 12 5 . 
	3 12 6 . 
	3 12 7 . 
	3 12 8 . 
	3 12 9 . 
	3 12 10 .
	3 12 11 .
	3 12 12 .
	3 12 13 .
	3 12 14 .
	3 13 1 .
	3 13 2 .
	3 13 3 .
	3 13 4 .
	3 13 5 .
	3 13 6 .
	3 13 7 .
	3 13 8 .
	3 13 9 .
	3 13 10 .
	3 13 11 .
	3 13 12 .
	3 13 13 .
	3 13 14 .
	3 14 1 100
	3 14 2 100
	3 14 3 100
	3 14 4 100
	3 14 5 .
	3 14 6 .
	3 14 7 100
	3 14 8 100
	3 14 9 100
	3 14 10 100
	3 14 11 100
	3 14 12 .
	3 14 13 .
	3 14 14 . ;

# Travel Distance
param D:=		
1 1 0
1 2 19
1 3 40
1 4 40
1 5 100
1 6 100
1 7 100
1 8 48
1 9 28
1 10 47
1 11 47
1 12 0
1 13 0
1 14 0
2 1 19
2 2 0
2 3 50
2 4 50
2 5 100
2 6 100
2 7 100
2 8 29
2 9 10
2 10 52
2 11 52
2 12 0
2 13 0
2 14 0
3 1 40
3 2 50
3 3 0
3 4 0
3 5 100
3 6 100
3 7 100
3 8 47
3 9 52
3 10 14
3 11 14
3 12 0
3 13 0
3 14 0
4 1 40
4 2 50
4 3 0
4 4 0
4 5 100
4 6 100
4 7 100
4 8 47
4 9 52
4 10 14
4 11 14
4 12 0
4 13 0
4 14 0
5 1 0
5 2 0
5 3 0
5 4 0
5 5 100
5 6 100
5 7 100
5 8 0
5 9 0
5 10 0
5 11 0
5 12 0
5 13 0
5 14 0
6 1 0
6 2 0
6 3 0
6 4 0
6 5 100
6 6 100
6 7 100
6 8 0
6 9 0
6 10 0
6 11 0
6 12 0
6 13 0
6 14 0
7 1 0
7 2 0
7 3 0
7 4 0
7 5 100
7 6 100
7 7 100
7 8 0
7 9 0
7 10 0
7 11 0
7 12 0
7 13 0
7 14 0
8 1 48
8 2 29
8 3 47
8 4 47
8 5 100
8 6 100
8 7 100
8 8 0
8 9 21
8 10 38
8 11 38
8 12 0
8 13 0
8 14 0
9 1 28
9 2 10
9 3 52
9 4 52
9 5 100
9 6 100
9 7 100
9 8 21
9 9 0
9 10 50
9 11 50
9 12 0
9 13 0
9 14 0
10 1 47
10 2 52
10 3 14
10 4 14
10 5 100
10 6 100
10 7 100
10 8 38
10 9 50
10 10 0
10 11 0
10 12 0
10 13 0
10 14 0
11 1 47
11 2 52
11 3 14
11 4 14
11 5 100
11 6 100
11 7 100
11 8 38
11 9 50
11 10 0
11 11 0
11 12 0
11 13 0
11 14 0
12 1 100
12 2 100
12 3 100
12 4 100
12 5 100
12 6 100
12 7 100
12 8 100
12 9 100
12 10 100
12 11 100
12 12 100
12 13 100
12 14 100
13 1 100
13 2 100
13 3 100
13 4 100
13 5 100
13 6 100
13 7 100
13 8 100
13 9 100
13 10 100
13 11 100
13 12 100
13 13 100
13 14 100
14 1 100
14 2 100
14 3 100
14 4 100
14 5 100
14 6 100
14 7 100
14 8 100
14 9 100
14 10 100
14 11 100
14 12 100
14 13 100
14 14 100 ;
